ilp_joint/output/sexual reproduction_ilp.lp
Maximize
  0.00446143297051435 Z_420_0_0 + 0.0511927385034171 Z_420_0_1
   + 0.00357478969663277 Z_420_0_2 + 0.7169139949475339 Z_420_0_3
   + 0.1238570438819019 Z_420_0_4 + 4.31901e-05 Z_507_0_0
   + 0.00465216796840586 Z_507_0_1 + 0.8530754280180599 Z_507_0_2
   + 0.00116274404395856 Z_507_0_3 + 0.0410664698233697 Z_507_0_4
   + 6.26803e-05 Z_278_0_0 + 0.00869756384911926 Z_278_0_1
   + 0.8528199930075724 Z_278_0_2 + 3.6893052421819642e-04 Z_278_0_3
   + 0.0380508323307319 Z_278_0_4 + [ 6.92521e-05 Z_420_0_0 * Z_278_0_0
   + 6.92521e-05 Z_420_0_1 * Z_278_0_1 + 6.92521e-05 Z_420_0_2 * Z_278_0_2
   + 6.92521e-05 Z_420_0_3 * Z_278_0_3 + 6.92521e-05 Z_420_0_4 * Z_278_0_4
   + 0.0183673469387755 Z_507_0_0 * Z_278_0_0
   + 0.0183673469387755 Z_507_0_1 * Z_278_0_1
   + 0.0183673469387755 Z_507_0_2 * Z_278_0_2
   + 0.0183673469387755 Z_507_0_3 * Z_278_0_3
   + 0.0183673469387755 Z_507_0_4 * Z_278_0_4 ] / 2 
Subject To
 constraint1_4200: Z_420_0_0 + Z_420_0_1 + Z_420_0_2 + Z_420_0_3
   + Z_420_0_4 <= 1
 constraint1_5070: Z_507_0_0 + Z_507_0_1 + Z_507_0_2 + Z_507_0_3
   + Z_507_0_4 <= 1
 constraint1_2780: Z_278_0_0 + Z_278_0_1 + Z_278_0_2 + Z_278_0_3
   + Z_278_0_4 <= 1
 constraint2_4200: Z_420_0_0 <= 1
 constraint2_4201: Z_420_0_1 <= 1
 constraint2_4202: Z_420_0_2 <= 1
 constraint2_4203: Z_420_0_3 <= 1
 constraint2_5070: Z_507_0_0 <= 1
 constraint2_5071: Z_507_0_1 <= 1
 constraint2_5072: Z_507_0_2 <= 1
 constraint2_5073: Z_507_0_3 <= 1
 constraint2_2780: Z_278_0_0 <= 1
 constraint2_2781: Z_278_0_1 <= 1
 constraint2_2782: Z_278_0_2 <= 1
 constraint2_2783: Z_278_0_3 <= 1
Bounds
Binaries
 Z_420_0_0 Z_420_0_1 Z_420_0_2 Z_420_0_3 Z_420_0_4 Z_507_0_0 Z_507_0_1
 Z_507_0_2 Z_507_0_3 Z_507_0_4 Z_278_0_0 Z_278_0_1 Z_278_0_2 Z_278_0_3
 Z_278_0_4
End
