ilp_joint/output/sexual reproduction_ilp.sol
# Solution for model sexual reproduction_srl_ilp
# Objective value = 3.2075210070759148e+00
Z_659_1_0 0
Z_659_1_1 0
Z_659_1_2 1
Z_659_1_3 0
Z_659_0_0 1
Z_659_0_1 0
Z_659_0_2 0
Z_659_0_3 0
Z_318_0_0 0
Z_318_0_1 0
Z_318_0_2 1
Z_318_0_3 0
Z_595_0_0 0
Z_595_0_1 0
Z_595_0_2 1
Z_595_0_3 0
Z_420_0_0 0
Z_420_0_1 0
Z_420_0_2 0
Z_420_0_3 1
Z_200_0_0 0
Z_200_0_1 0
Z_200_0_2 1
Z_200_0_3 0
Z_507_0_0 0
Z_507_0_1 0
Z_507_0_2 1
Z_507_0_3 0
